num_offers = 30;
num_halls = 10;
start=[19,53,24,52,7,42,40,12,3,7,1,11,16,4,11,6,51,24,3,7,18,1,51,18,6,3,58,18,20,8];
end=[36,66,88,75,49,70,76,61,35,18,56,39,40,51,42,86,62,68,42,10,41,26,75,85,33,77,66,58,55,72];
price=[1241,763,4499,1147,3733,2757,1802,3190,2046,1094,4978,758,1381,4257,1705,7037,553,683,3514,359,1275,982,700,3679,1634,3966,534,1497,1897,1611];
requirement=[993,494,901,855,947,342,349,306,793,404,714,862,950,634,598,993,211,210,281,793,986,946,254,901,278,713,774,636,972,629];
capacity=[598,908,950,542,991,682,861,777,967,578];
